65
3 0 8
3 1 9
3 2 3
4 1 5
4 3 6
5 0 7
5 2 10
5 3 8
6 1 4
6 2 6
6 3 8
7 0 2
7 1 5
7 4 7
7 6 1
8 0 2
8 5 5
8 7 5
9 2 6
9 4 10
9 5 7
9 7 4
10 1 5
10 2 8
10 6 5
11 0 10
11 1 8
11 4 3
11 5 6
11 6 9
11 7 6
11 9 4
12 1 2
12 2 2
12 3 2
12 7 3
12 11 4
13 3 1
13 5 6
13 10 9
13 11 1
13 12 1
14 5 8
14 6 1
14 7 3
14 8 7
14 9 5
14 10 6
14 11 6
15 3 2
15 9 7
15 10 10
15 12 2
15 13 4
15 14 2
16 1 1
16 5 8
16 6 1
16 10 4
16 11 9
16 12 2
16 13 3
16 15 9
17 1 5
17 7 3
17 12 7
17 13 3
17 14 5
17 15 3
17 16 5
18 2 3
18 7 9
18 8 6
18 10 6
18 13 6
18 16 1
19 0 8
19 1 1
19 2 5
19 3 8
19 4 8
19 6 6
19 8 6
19 9 6
19 10 6
19 12 1
19 17 5
20 0 6
20 7 4
20 9 3
20 12 3
20 13 7
20 14 6
20 15 3
20 16 10
20 18 7
20 19 2
21 0 1
21 4 7
21 7 6
21 8 8
21 11 10
21 12 5
21 16 4
21 17 1
21 19 6
22 8 7
22 10 1
22 11 6
22 12 4
22 13 1
22 14 4
22 21 3
23 0 10
23 1 10
23 6 1
23 7 6
23 12 3
23 13 9
23 16 8
23 20 5
23 21 1
24 0 3
24 7 3
24 8 1
24 9 7
24 13 7
24 15 3
24 16 5
25 2 6
25 3 3
25 4 3
25 5 3
25 7 5
25 10 9
25 11 3
25 12 6
25 16 5
25 17 10
25 19 1
25 21 2
25 22 1
25 23 3
26 1 10
26 3 4
26 7 9
26 10 7
26 12 3
26 13 1
26 14 4
26 16 2
26 19 7
26 20 2
26 21 4
27 0 10
27 1 7
27 2 7
27 3 8
27 5 7
27 6 8
27 7 7
27 8 9
27 9 8
27 15 6
27 16 5
27 17 2
27 18 1
27 22 6
27 24 5
27 25 10
27 26 1
28 4 1
28 6 3
28 7 6
28 8 7
28 10 9
28 11 2
28 16 2
28 17 10
28 19 9
28 20 6
28 21 1
28 22 10
28 24 6
28 25 9
28 26 9
29 0 4
29 1 4
29 2 2
29 3 2
29 4 1
29 5 10
29 7 3
29 12 3
29 14 1
29 15 9
29 16 4
29 17 5
29 19 2
29 26 2
29 27 9
29 28 10
30 1 4
30 2 8
30 4 5
30 6 2
30 7 6
30 8 2
30 9 3
30 11 10
30 12 1
30 14 5
30 16 9
30 19 3
30 20 6
30 21 1
30 23 6
30 24 7
30 25 10
30 28 7
31 0 2
31 1 7
31 2 8
31 4 4
31 6 5
31 11 10
31 12 5
31 13 6
31 16 8
31 23 5
31 25 9
31 26 1
31 27 7
31 28 9
31 29 5
32 1 2
32 2 6
32 4 9
32 5 1
32 7 3
32 9 4
32 10 2
32 11 6
32 12 8
32 15 7
32 16 1
32 19 8
32 20 6
32 21 1
32 24 2
32 26 1
32 27 7
32 28 1
33 0 4
33 11 10
33 14 2
33 15 3
33 16 6
33 21 8
33 22 10
33 23 9
33 26 3
33 28 6
33 29 8
33 30 3
34 1 3
34 2 7
34 5 5
34 7 3
34 8 10
34 10 4
34 12 6
34 13 8
34 14 1
34 15 4
34 20 2
34 21 6
34 24 2
34 25 2
34 26 5
34 27 8
34 29 10
34 30 10
34 32 7
34 33 7
35 0 3
35 1 10
35 3 10
35 5 3
35 8 10
35 9 2
35 10 5
35 11 7
35 12 8
35 13 4
35 15 1
35 16 5
35 17 3
35 18 10
35 19 10
35 22 9
35 23 3
35 24 4
35 25 9
35 26 4
35 27 7
35 28 7
35 32 7
36 7 9
36 8 5
36 10 5
36 11 2
36 15 9
36 17 1
36 18 3
36 20 5
36 21 5
36 22 1
36 23 10
36 26 1
36 27 5
36 28 7
36 30 5
36 35 7
37 0 9
37 1 4
37 2 7
37 5 3
37 8 7
37 10 1
37 12 3
37 13 1
37 14 7
37 17 7
37 19 10
37 20 5
37 22 7
37 23 7
37 24 10
37 26 5
37 30 2
37 34 6
37 35 5
37 36 5
38 0 9
38 2 5
38 6 6
38 9 4
38 11 3
38 15 4
38 19 4
38 21 8
38 22 4
38 23 6
38 24 5
38 25 6
38 26 1
38 30 1
38 33 4
38 34 9
38 36 1
39 1 9
39 3 2
39 4 4
39 5 5
39 6 3
39 7 10
39 8 10
39 9 5
39 16 3
39 18 8
39 23 1
39 24 7
39 27 6
39 28 5
39 29 10
39 32 8
39 34 5
39 35 1
39 38 3
40 0 5
40 1 1
40 2 4
40 3 3
40 7 9
40 8 2
40 9 3
40 10 7
40 11 3
40 12 6
40 13 1
40 15 7
40 16 9
40 18 2
40 22 3
40 25 4
40 26 3
40 30 8
40 31 6
40 32 1
40 35 1
40 36 3
40 38 1
41 2 9
41 3 9
41 6 8
41 7 3
41 8 1
41 9 5
41 11 5
41 13 5
41 14 4
41 15 10
41 19 8
41 21 3
41 23 6
41 24 5
41 26 9
41 27 1
41 28 4
41 29 4
41 30 3
41 32 3
41 34 4
41 39 5
41 40 8
42 2 7
42 3 10
42 4 9
42 6 7
42 9 2
42 11 5
42 13 9
42 14 5
42 16 8
42 17 7
42 18 4
42 20 10
42 25 2
42 29 3
42 30 10
42 31 10
42 34 2
42 35 6
42 36 5
42 37 9
42 38 3
42 39 4
42 40 4
42 41 7
43 2 5
43 3 5
43 5 3
43 8 1
43 9 10
43 10 8
43 13 3
43 15 9
43 16 7
43 17 3
43 18 3
43 20 10
43 24 6
43 26 8
43 27 2
43 30 6
43 31 7
43 35 9
43 36 8
43 38 2
43 39 3
43 40 1
43 41 2
43 42 5
44 1 7
44 3 1
44 4 8
44 6 10
44 7 9
44 8 9
44 12 3
44 13 7
44 14 5
44 21 7
44 23 6
44 25 7
44 29 4
44 31 2
44 32 5
44 33 4
44 34 3
44 35 9
44 37 3
44 40 2
44 43 4
45 0 8
45 2 2
45 3 8
45 5 4
45 6 4
45 7 3
45 8 6
45 11 1
45 12 4
45 15 1
45 17 4
45 19 7
45 20 5
45 21 3
45 23 6
45 24 4
45 27 5
45 31 9
45 32 2
45 34 4
45 35 7
45 36 9
45 40 4
45 41 7
45 42 10
45 43 4
45 44 3
46 0 10
46 2 8
46 3 1
46 4 4
46 5 9
46 11 4
46 12 4
46 16 2
46 17 3
46 18 6
46 19 7
46 20 3
46 23 7
46 24 4
46 25 1
46 26 7
46 27 7
46 28 6
46 36 2
46 37 3
46 38 2
46 40 7
46 41 5
46 42 4
47 2 9
47 4 9
47 6 6
47 9 3
47 12 10
47 14 6
47 16 8
47 17 7
47 18 1
47 19 1
47 21 8
47 23 9
47 24 2
47 25 9
47 27 2
47 28 7
47 29 6
47 30 4
47 32 8
47 35 1
47 37 4
47 39 10
47 43 9
48 1 4
48 2 4
48 6 3
48 8 9
48 9 6
48 13 4
48 19 8
48 20 9
48 24 10
48 27 4
48 29 10
48 30 1
48 33 9
48 36 2
48 37 3
48 39 1
48 41 5
48 44 1
48 45 2
48 47 1
49 2 2
49 3 5
49 5 2
49 6 3
49 7 6
49 9 6
49 12 3
49 14 3
49 15 9
49 16 6
49 17 10
49 19 4
49 20 6
49 21 3
49 22 9
49 24 10
49 25 3
49 26 2
49 27 3
49 31 4
49 33 9
49 34 4
49 35 10
49 37 10
49 42 10
49 43 2
49 45 3
49 46 7
49 47 8
49 48 8
50 1 5
50 6 1
50 10 8
50 15 2
50 22 9
50 23 7
50 24 4
50 25 1
50 29 6
50 30 6
50 31 10
50 32 10
50 38 6
50 39 8
50 45 6
50 46 9
50 47 1
51 0 5
51 2 5
51 4 3
51 7 7
51 8 5
51 10 3
51 12 2
51 14 8
51 18 4
51 19 3
51 24 4
51 27 8
51 29 2
51 32 6
51 36 5
51 41 4
51 42 1
51 47 3
51 49 4
51 50 4
52 2 9
52 3 1
52 5 6
52 12 8
52 13 1
52 18 9
52 20 4
52 23 5
52 26 7
52 28 4
52 29 2
52 31 7
52 32 10
52 33 1
52 34 2
52 35 7
52 36 3
52 37 7
52 38 8
52 41 10
52 42 4
52 43 10
52 46 6
52 48 2
52 50 1
53 4 8
53 8 9
53 9 4
53 10 5
53 12 5
53 13 7
53 14 9
53 16 1
53 17 6
53 19 4
53 26 2
53 27 7
53 28 5
53 29 9
53 30 3
53 32 5
53 33 9
53 40 6
53 41 5
53 42 7
53 44 3
53 45 1
53 47 5
53 48 3
53 49 9
54 2 2
54 4 9
54 5 4
54 7 2
54 8 9
54 9 10
54 10 1
54 12 5
54 14 5
54 18 5
54 20 7
54 21 7
54 22 4
54 23 9
54 24 7
54 26 3
54 31 5
54 37 6
54 40 1
54 43 1
54 46 8
54 48 10
54 49 10
54 50 2
54 51 3
54 52 1
55 2 2
55 4 6
55 7 2
55 8 5
55 12 7
55 13 7
55 14 4
55 15 3
55 16 3
55 19 7
55 25 3
55 27 10
55 29 6
55 31 4
55 35 6
55 37 8
55 39 4
55 40 8
55 41 8
55 42 2
55 45 4
55 46 1
55 48 5
55 50 1
55 51 1
55 53 5
56 0 6
56 1 5
56 2 3
56 6 3
56 8 1
56 10 5
56 12 10
56 16 3
56 21 3
56 22 9
56 23 2
56 24 9
56 25 8
56 26 6
56 28 4
56 30 10
56 35 9
56 36 5
56 37 5
56 39 5
56 43 8
56 46 10
56 47 3
56 48 9
56 49 6
56 50 9
56 53 8
56 54 4
57 0 10
57 1 8
57 3 2
57 5 7
57 6 8
57 9 9
57 11 6
57 14 3
57 18 4
57 19 4
57 24 2
57 26 8
57 29 9
57 31 7
57 38 4
57 39 10
57 42 3
57 44 4
57 45 4
57 48 4
57 52 6
57 56 6
58 2 1
58 4 8
58 8 8
58 10 7
58 13 10
58 15 5
58 18 10
58 20 7
58 22 7
58 24 1
58 25 9
58 27 2
58 29 7
58 30 3
58 34 1
58 35 9
58 36 6
58 38 6
58 39 5
58 41 5
58 43 6
58 44 10
58 45 1
58 46 10
58 47 6
58 49 8
58 52 3
58 56 10
59 1 5
59 3 5
59 4 2
59 6 10
59 8 9
59 11 2
59 12 7
59 13 7
59 14 8
59 15 2
59 19 8
59 20 10
59 22 10
59 23 10
59 24 8
59 25 2
59 27 9
59 29 6
59 33 3
59 35 10
59 36 7
59 38 6
59 39 2
59 45 3
59 49 7
59 50 5
59 54 2
59 56 6
59 58 7
60 4 6
60 6 9
60 7 1
60 9 2
60 11 8
60 14 3
60 16 6
60 17 9
60 18 7
60 19 8
60 21 4
60 26 8
60 31 6
60 32 3
60 36 5
60 37 10
60 38 3
60 40 5
60 42 10
60 44 5
60 45 5
60 46 4
60 47 8
60 49 5
60 53 3
60 54 6
60 55 5
60 57 7
61 1 4
61 3 1
61 4 1
61 8 7
61 9 2
61 10 8
61 11 5
61 12 5
61 13 6
61 16 2
61 17 7
61 18 8
61 19 5
61 21 2
61 22 1
61 23 2
61 25 8
61 26 10
61 30 4
61 31 1
61 33 4
61 36 10
61 37 4
61 40 8
61 42 2
61 43 5
61 44 9
61 46 5
61 47 5
61 48 5
61 49 2
61 50 6
61 53 6
61 56 1
61 57 2
61 58 6
61 60 1
62 0 3
62 3 10
62 5 8
62 7 9
62 9 4
62 10 8
62 11 8
62 13 4
62 15 7
62 16 10
62 17 10
62 18 2
62 20 9
62 21 4
62 22 3
62 23 7
62 24 1
62 28 1
62 29 10
62 30 8
62 32 3
62 33 3
62 39 8
62 40 5
62 42 4
62 43 3
62 45 5
62 46 4
62 48 4
62 49 2
62 50 6
62 51 8
62 52 4
62 53 4
62 54 6
62 55 10
62 57 2
62 58 9
62 59 4
62 61 3
63 2 6
63 3 5
63 6 2
63 7 4
63 8 1
63 13 7
63 14 4
63 15 7
63 16 5
63 19 4
63 33 9
63 37 5
63 38 9
63 39 8
63 43 2
63 44 2
63 48 10
63 49 6
63 50 5
63 51 7
63 53 4
63 54 2
63 55 10
63 59 4
63 60 1
63 61 3
63 62 1
64 0 3
64 2 3
64 4 6
64 6 7
64 10 5
64 11 2
64 12 10
64 13 10
64 15 7
64 18 5
64 19 1
64 22 8
64 23 5
64 25 1
64 27 1
64 30 10
64 32 8
64 35 10
64 40 9
64 41 4
64 42 8
64 43 4
64 44 3
64 46 2
64 48 3
64 49 6
64 50 2
64 52 5
64 53 5
64 56 8
64 58 9
64 62 8
